25 500
  0     35.0     35.0       0.0     1000.0      0.0       0.0       0.0  
  1     41.0     49.0      190.0     974.0     10.0       1.0      10.0  
  2     35.0     17.0      18.0      792.0     10.0      10.0       7.0  
  3     55.0     45.0      289.0     822.0     10.0      13.0      13.0  
  4     55.0     20.0      679.0     800.0     10.0      30.0      19.0  
  5     15.0     30.0      20.0      906.0     10.0       7.0      26.0  
  6     25.0     30.0      355.0     574.0     10.0       5.0       3.0  
  7     20.0     50.0      72.0      669.0     10.0       5.0       5.0  
  8     10.0     43.0      393.0     492.0     10.0      13.0       9.0  
  9     55.0     60.0      394.0     503.0     10.0       1.0      16.0  
 10     30.0     60.0      517.0     692.0     10.0       5.0      16.0  
 11     20.0     65.0      206.0     325.0     10.0       5.0      12.0  
 12     50.0     35.0      15.0      725.0     10.0      30.0      19.0  
 13     30.0     25.0      694.0     823.0     10.0      32.0      23.0  
 14     15.0     10.0      32.0      694.0     10.0       8.0      20.0  
 15     30.0      5.0      176.0     299.0     10.0       2.0       8.0  
 16     10.0     20.0      102.0     543.0     10.0      37.0      19.0  
 17      5.0     30.0      673.0     930.0     10.0       1.0       2.0  
 18     20.0     40.0      229.0     582.0     10.0       8.0      12.0  
 19     15.0     60.0      95.0      552.0     10.0      21.0      17.0  
 20     45.0     65.0      418.0     829.0     10.0      17.0       9.0  
 21     45.0     20.0      18.0      727.0     10.0      19.0      11.0  
 22     45.0     10.0      349.0     554.0     10.0       9.0      18.0  
 23     55.0      5.0      206.0     325.0     10.0      53.0      29.0  
 24     65.0     35.0      435.0     960.0     10.0       5.0       3.0  
 25     65.0     20.0      826.0     956.0     10.0       6.0       6.0  
 26     45.0     30.0      328.0     927.0     10.0      31.0      17.0  
 27     35.0     40.0      44.0      315.0     10.0       9.0      16.0  
 28     41.0     37.0       6.0      526.0     10.0       8.0      16.0  
 29     64.0     42.0      29.0      513.0     10.0      10.0       9.0  
 30     40.0     60.0      199.0     414.0     10.0      22.0      21.0  
 31     31.0     52.0      17.0      744.0     10.0      34.0      27.0  
 32     35.0     69.0      482.0     955.0     10.0      42.0      23.0  
 33     53.0     52.0      24.0      299.0     10.0      21.0      11.0  
 34     65.0     55.0      265.0     878.0     10.0       7.0      14.0  
 35     63.0     65.0      626.0     873.0     10.0       7.0       8.0  
 36      2.0     60.0      41.0      328.0     10.0       8.0       5.0  
 37     20.0     20.0      339.0     960.0     10.0       8.0       8.0  
 38      5.0      5.0      298.0     409.0     10.0       3.0      16.0  
 39     60.0     12.0      33.0      344.0     10.0      53.0      31.0  
 40     40.0     25.0      300.0     497.0     10.0      18.0       9.0  
 41     42.0      7.0      336.0     571.0     10.0      10.0       5.0  
 42     24.0     12.0      25.0      292.0     10.0       7.0       5.0  
 43     23.0      3.0      458.0     867.0     10.0       8.0       7.0  
 44     11.0     14.0      230.0     343.0     10.0      14.0      18.0  
 45      6.0     38.0      29.0      309.0     10.0       1.0      16.0  
 46      2.0     48.0      338.0     805.0     10.0       1.0       1.0  
 47      8.0     56.0      34.0      602.0     10.0      33.0      27.0  
 48     13.0     52.0      200.0     962.0     10.0       9.0      36.0  
 49      6.0     68.0      441.0     600.0     10.0      15.0      30.0  
 50     47.0     47.0      272.0     917.0     10.0      18.0      13.0  
 51     49.0     58.0      176.0     625.0     10.0      10.0      10.0  
 52     27.0     43.0      11.0      748.0     10.0      15.0       9.0  
 53     37.0     31.0      403.0     500.0     10.0       7.0      14.0  
 54     57.0     29.0      475.0     900.0     10.0      13.0      18.0  
 55     63.0     23.0      620.0     739.0     10.0       0.0       2.0  
 56     53.0     12.0      525.0     752.0     10.0       3.0       6.0  
 57     32.0     12.0      246.0     705.0     10.0      10.0       7.0  
 58     36.0     26.0      854.0     980.0     10.0       9.0      18.0  
 59     21.0     24.0      17.0      972.0     10.0      15.0      28.0  
 60     17.0     34.0      449.0     971.0     10.0       4.0       3.0  
 61     12.0     24.0      126.0     541.0     10.0      23.0      13.0  
 62     24.0     58.0      168.0     297.0     10.0      27.0      19.0  
 63     27.0     69.0      34.0      588.0     10.0       9.0      10.0  
 64     15.0     77.0      154.0     393.0     10.0      11.0       9.0  
 65     62.0     77.0      49.0      308.0     10.0      18.0      20.0  
 66     49.0     73.0      532.0     753.0     10.0      48.0      25.0  
 67     67.0      5.0      291.0     404.0     10.0      44.0      25.0  
 68     56.0     39.0      577.0     812.0     10.0      13.0      36.0  
 69     37.0     47.0      165.0     290.0     10.0       3.0       6.0  
 70     37.0     56.0      668.0     968.0     10.0       6.0       5.0  
 71     57.0     68.0      98.0      537.0     10.0      27.0      15.0  
 72     47.0     16.0      22.0      915.0     10.0      39.0      25.0  
 73     44.0     17.0      143.0     564.0     10.0      14.0       9.0  
 74     46.0     13.0      681.0     802.0     10.0       3.0       8.0  
 75     49.0     11.0      27.0      711.0     10.0      11.0      18.0  
 76     49.0     42.0      281.0     382.0     10.0      18.0      13.0  
 77     53.0     43.0      821.0     948.0     10.0       1.0      14.0  
 78     61.0     52.0      324.0     559.0     10.0       4.0       3.0  
 79     57.0     48.0      377.0     476.0     10.0      27.0      23.0  
 80     56.0     37.0      719.0     968.0     10.0       4.0       6.0  
 81     55.0     54.0      268.0     599.0     10.0      19.0      26.0  
 82     15.0     47.0      23.0      761.0     10.0       3.0      16.0  
 83     14.0     37.0      21.0      842.0     10.0      14.0      11.0  
 84     11.0     31.0      425.0     522.0     10.0       7.0       7.0  
 85     16.0     22.0      110.0     727.0     10.0      51.0      41.0  
 86      4.0     18.0      230.0     623.0     10.0      39.0      35.0  
 87     28.0     18.0      397.0     470.0     10.0       1.0      26.0  
 88     26.0     52.0      219.0     448.0     10.0      10.0       9.0  
 89     26.0     35.0      409.0     981.0     10.0      19.0      15.0  
 90     31.0     67.0      225.0     654.0     10.0       5.0       3.0  
 91     15.0     19.0      222.0     964.0     10.0       1.0       1.0  
 92     22.0     22.0      18.0      159.0     10.0       0.0       2.0  
 93     18.0     24.0      691.0     969.0     10.0       6.0      22.0  
 94     26.0     27.0      190.0     749.0     10.0      32.0      27.0  
 95     25.0     24.0      14.0      793.0     10.0       1.0      20.0  
 96     22.0     27.0      344.0     953.0     10.0      18.0      11.0  
 97     25.0     21.0      462.0     823.0     10.0       9.0      12.0  
 98     19.0     21.0      21.0      748.0     10.0       9.0      10.0  
 99     20.0     26.0      328.0     437.0     10.0      10.0       9.0  
 100    18.0     18.0      821.0     965.0     10.0      20.0      17.0  
